#set of nodos
set N := 1 2 3 4 5 6 7 8 9 10 11 12 13 14 15 16 17 18 19 20 21 22 23 24;

#fixed links
set links := 
(1,2)   (2,1)   (1,4)   (4,1)   (2,3)   (3,2)   (3,6)   (6,3)   (3,7)   (7,3) 
(4,5)   (5,4)   (4,9)   (9,4)   (5,10)  (10,5)  (5,6)   (6,5)   (6,14)  (14,6)   
(7,14)  (14,7)  (7,19)  (19,7)  (8,9)   (9,8)   (8,11)  (11,8)  (9,12)  (12,9)  
(9,10)  (10,9)  (10,13) (13,10) (11,22) (22,11) (11,12) (12,11) (12,15) (15,12) 
(12,13) (13,12) (13,14) (14,13) (13,15) (15,13) (13,17) (17,13) (14,18) (18,14) 
(15,16) (16,15) (16,17) (17,16) (16,22) (22,16) (17,18) (18,17) (17,20) (20,17) 
(18,21) (21,18) (19,24) (24,19) (20,22) (22,20) (20,23) (23,20) (20,21) (21,20) 
(21,24) (24,21) (22,23) (23,22) (23,24) (24,23);

#cost of arcs
param cost:= 
	1 2 96
	2 1 96
	1 4 168
	4 1 96
	2 3 96
	3 2 96
	3 6 168
	6 3 96
	3 7 97
	7 3 97
	4 5 168
	5 4 96
	4 9 168
	9 4 96
	5 10 96
	10 5 168
	5 6 96
	6 5 96
	6 14 99
	14 6 99
	7 14 100
	14 7 100
	7 19 111
	19 7 194.25
	8 9 96
	9 8 96
	8 11 96
	11 8 96
	9 12 96
	12 9 96
	9 10 96
	10 9 96
	10 13 96
	13 10 96
	11 22 111
	22 11 111
	11 12 96
	12 11 96
	12 15 96.25
	15 12 96.25
	12 13 96
	13 12 96
	13 14 96
	14 13 168
	13 15 96.25
	15 13 168.4375
	13 17 99
	17 13 99
	14 18 99
	18 14 99
	15 16 96.25
	16 15 168.4375
	16 17 96
	17 16 96
	16 22 100
	22 16 100
	17 18 96
	18 17 96
	17 20 96
	20 17 96
	18 21 96
	21 18 168
	19 24 100
	24 19 100
	20 22 100
	22 20 100
	20 23 96
	23 20 96
	20 21 96
	21 20 96
	21 24 168
	24 21 96
	22 23 173.25
	23 22 173.25
	23 24 96
	24 23 96;
